
List of user-set options:

                                    Name   Value                used
                        file_print_level = 5                     yes
                   hessian_approximation = limited-memory        yes
                           linear_solver = mumps                 yes
                                max_iter = 400                   yes
                      nlp_scaling_method = user-scaling          yes
                             output_file = /Users/marcello/Documents/zhaw/BAZL/DRACONIAN/Dymos/terrain_traj_v1_out/IPOPT.out  yes
                             print_level = 5                     yes
                      print_user_options = yes                   yes
                                      sb = yes                   yes
This is Ipopt version 3.14.19, running with linear solver MUMPS 5.8.2.

Number of nonzeros in equality constraint Jacobian...:    17364
Number of nonzeros in inequality constraint Jacobian.:    16020
Number of nonzeros in Lagrangian Hessian.............:        0

Total number of variables............................:      178
                     variables with only lower bounds:        0
                variables with lower and upper bounds:      122
                     variables with only upper bounds:        0
Total number of equality constraints.................:      132
Total number of inequality constraints...............:       90
        inequality constraints with only lower bounds:       45
   inequality constraints with lower and upper bounds:       45
        inequality constraints with only upper bounds:        0

iter    objective    inf_pr   inf_du lg(mu)  ||d||  lg(rg) alpha_du alpha_pr  ls
   0  5.0000000e+00 3.15e+01 1.06e+00   0.0 0.00e+00    -  0.00e+00 0.00e+00   0
   1  6.0653720e+00 8.87e+00 2.99e+01   0.2 1.55e+01    -  2.12e-01 6.89e-01f  1
   2  6.0650819e+00 8.58e+00 3.54e+01  -5.4 2.66e+00    -  6.57e-01 3.89e-02h  1
   3  6.0539962e+00 3.21e+00 1.95e+01  -0.0 1.70e+01    -  2.99e-01 4.47e-01f  1
   4  5.9900514e+00 7.98e-01 1.47e+01  -1.8 5.86e+00    -  4.59e-01 6.38e-01h  1
   5  5.9820572e+00 1.72e-03 1.89e+01  -0.3 7.58e+00    -  4.88e-01 1.00e+00f  1
   6  6.0058783e+00 1.51e-03 5.04e+00  -0.3 6.25e+00    -  6.80e-01 1.00e+00f  1
   7  5.9958900e+00 1.62e-04 1.04e-01  -1.1 8.24e-01    -  9.94e-01 1.00e+00h  1
   8  5.9702515e+00 6.60e-05 9.55e-02  -7.1 5.60e-01    -  8.84e-01 1.00e+00h  1
   9  2.5410579e+00 7.18e-01 8.64e-02  -2.2 5.33e+02    -  1.04e-01 6.43e-02f  1
iter    objective    inf_pr   inf_du lg(mu)  ||d||  lg(rg) alpha_du alpha_pr  ls
  10  2.0443606e+00 5.32e-01 4.28e-02  -1.8 3.40e+01    -  2.79e-01 4.05e-01h  1
  11  2.9958099e+00 3.41e-01 2.88e-02  -1.7 9.51e+00    -  1.00e+00 1.00e+00h  1
  12  2.5739643e+00 7.64e-02 5.22e-02  -7.7 4.22e+00    -  5.97e-01 1.00e+00h  1
  13  2.4040658e+00 1.91e-02 9.57e-03  -2.9 2.05e+00    -  9.98e-01 1.00e+00h  1
  14  2.4517308e+00 8.24e-03 5.25e-03  -2.5 2.51e+00    -  1.00e+00 1.00e+00h  1
  15  2.3810113e+00 2.97e-02 1.06e-02  -2.8 7.75e-01    -  1.00e+00 9.93e-01h  1
  16  2.3424401e+00 3.42e-03 2.60e-03  -3.2 7.40e-01    -  1.00e+00 9.86e-01h  1
  17  2.3316913e+00 7.05e-04 1.34e-02  -3.5 1.14e+00    -  7.32e-01 9.97e-01h  1
  18  2.3195862e+00 8.70e-04 1.86e-02  -3.6 6.80e-01    -  1.00e+00 1.00e+00h  1
  19  2.3143373e+00 8.44e-05 1.84e-03  -3.8 3.42e-01    -  1.00e+00 1.00e+00h  1
iter    objective    inf_pr   inf_du lg(mu)  ||d||  lg(rg) alpha_du alpha_pr  ls
  20  2.3125991e+00 1.40e-06 1.73e-02  -5.7 1.74e-02    -  9.95e-01 1.00e+00h  1
  21  2.3110990e+00 1.78e-05 6.53e-02  -5.0 4.97e-01    -  1.00e+00 1.28e-01h  1
  22  2.3102024e+00 7.50e-05 4.16e-02  -4.4 1.49e+00    -  1.00e+00 2.70e-01h  1
  23  2.3091770e+00 2.84e-05 9.41e-04  -4.6 5.85e-01    -  1.00e+00 1.00e+00h  1
  24  2.3084358e+00 7.05e-06 5.63e-05  -5.4 4.47e-02    -  9.98e-01 1.00e+00h  1
  25  2.3082950e+00 2.73e-08 1.40e-03  -7.4 1.99e-03    -  1.00e+00 1.00e+00h  1
  26  2.3082795e+00 4.12e-08 5.47e-03  -6.9 2.67e-01    -  1.00e+00 4.02e-02h  1
  27  2.3082678e+00 3.74e-08 4.55e-03  -7.4 1.17e-01    -  1.00e+00 2.37e-01h  1
  28  2.3082461e+00 1.49e-08 1.25e-04  -7.5 3.53e-03    -  1.00e+00 9.73e-01h  1
  29  2.3082444e+00 3.24e-11 9.97e-05  -9.2 1.01e-04    -  1.00e+00 1.00e+00h  1
iter    objective    inf_pr   inf_du lg(mu)  ||d||  lg(rg) alpha_du alpha_pr  ls
  30  2.3082444e+00 2.66e-11 9.69e-08 -11.0 2.07e-03    -  1.00e+00 1.84e-01h  1
  31  2.3082443e+00 4.65e-13 1.31e-08 -11.0 2.73e-05    -  1.00e+00 1.00e+00h  1
  32  2.3082443e+00 1.46e-13 1.74e-10 -11.0 2.45e-07    -  1.00e+00 1.00e+00h  1

Number of Iterations....: 32

                                   (scaled)                 (unscaled)
Objective...............:   2.3082443029358113e+00    2.3082443029358113e+00
Dual infeasibility......:   1.7394310343661334e-10    1.7394310343661334e-10
Constraint violation....:   1.4607196038001339e-13    1.4607196038001339e-13
Variable bound violation:   1.7789146378177634e-08    1.7789146378177634e-08
Complementarity.........:   1.0003382160828218e-11    1.0003382160828218e-11
Overall NLP error.......:   1.7394310343661334e-10    1.7394310343661334e-10


Number of objective function evaluations             = 33
Number of objective gradient evaluations             = 33
Number of equality constraint evaluations            = 33
Number of inequality constraint evaluations          = 33
Number of equality constraint Jacobian evaluations   = 33
Number of inequality constraint Jacobian evaluations = 33
Number of Lagrangian Hessian evaluations             = 0
Total seconds in IPOPT                               = 3.459

EXIT: Optimal Solution Found.
